5095
5111
5061
5116
5127
5002
5151
5085
5114
5133
5132
4956
5037
5071
4983
5161
5082
5086
5071
5028
5018
5047
5046
4988
4904
5067
4994
5091
5050
4981
5137
5102
5120
4930
5060
5039
5096
5072
5112
4975
5119
5072
5122
5117
5110
5126
5054
5031
5112
5095
5016
5168
5014
5064
5129
5055
5149
5074
5104
5091
5044
4991
5076
5055
5020
5116
5136
5091
5093
4999
5063
5055
5112
5050
5066
4968
5145
5077
5099
5080
5125
5065
4968
5121
5084
5064
5147
5061
5085
5089
4992
5143
5005
5102
5063
5066
4966
5003
5050
5072
